92 99 69 94 31 
84 34 77 54 
73 46 51 68 55 2 100 21 3 32 49 90 88 
19 33 78 81 35 14 5 62 17 44 22 64 80 85 16 20 47 29 63 10 96 97 
52 95 1 50 65 11 86 38 8 59 57 39 75 56 41 40 26 4 13 18 7 72 45 58 24 71 
15 76 23 9 87 28 66 83 42 74 70 89 61 30 37 91 98 
60 67 27 53 6 36 79 43 12 48 25 93 82 
